\ENCODING=ISO-8859-1
\Problem name: ilog.cplex

Minimize
 obj1: 91862 x1 + 92930 x2 + 106451 x3 + 99877 x4 + 90647 x5 + 105970 x6
       + 107061 x7 + 96402 x8 + 103025 x9 + 93349 x10 + 100771 x11 + 96729 x12
       + 101298 x13 + 99227 x14 + 90501 x15 + 107315 x16 + 101284 x17
       + 107835 x18 + 102229 x19 + 102909 x20 + 99373 x21 + 90501 x22
       + 98506 x23 + 100143 x24 + 109237 x25 + 104695 x26 + 95124 x27
       + 101517 x28 + 95299 x29 + 97160 x30 + 108980 x31 + 96327 x32
       + 94618 x33 + 101064 x34 + 107548 x35 + 103223 x36 + 94005 x37
       + 100525 x38 + 103354 x39 + 92868 x40 + 105005 x41 + 104996 x42
       + 100472 x43 + 98545 x44 + 95801 x45 + 90642 x46 + 94281 x47
       + 107606 x48 + 96139 x49 + 106230 x50 + 90618 x51 + 107257 x52
       + 109049 x53 + 106964 x54 + 105902 x55 + 94496 x56 + 101459 x57
       + 91324 x58 + 95968 x59 + 91878 x60 + 98304 x61 + 95411 x62 + 103879 x63
       + 97727 x64 + 107203 x65 + 107741 x66 + 109018 x67 + 90673 x68
       + 103202 x69 + 108112 x70 + 95533 x71 + 97565 x72 + 102820 x73
       + 105767 x74 + 108405 x75 + 109868 x76 + 94699 x77 + 93960 x78
       + 98453 x79 + 93983 x80 + 100567 x81 + 99514 x82 + 95208 x83
       + 101776 x84 + 99365 x85 + 101751 x86 + 95010 x87 + 106607 x88
       + 93890 x89 + 105674 x90 + 96732 x91 + 105730 x92 + 91809 x93
       + 98894 x94 + 105341 x95 + 102261 x96 + 101049 x97 + 106926 x98
       + 97009 x99 + 102962 x100 + 103348 x101 + 107293 x102 + 98517 x103
       + 101630 x104 + 109121 x105 + 109315 x106 + 98455 x107 + 102183 x108
       + 91839 x109 + 93483 x110 + 98000 x111 + 90351 x112 + 90761 x113
       + 92033 x114 + 105056 x115 + 108390 x116 + 97107 x117 + 100587 x118
       + 97102 x119 + 103358 x120 + 106204 x121 + 91447 x122 + 94687 x123
       + 105157 x124 + 96307 x125 + 103762 x126 + 92224 x127 + 97930 x128
       + 94088 x129 + 99623 x130 + 103170 x131 + 90090 x132 + 102911 x133
       + 91827 x134 + 92269 x135 + 109100 x136 + 90760 x137 + 107847 x138
       + 107640 x139 + 108097 x140 + 102010 x141 + 90930 x142 + 95504 x143
       + 93516 x144 + 100126 x145 + 106168 x146 + 98973 x147 + 96153 x148
       + 103211 x149 + 106202 x150 + 93618 x151 + 98375 x152 + 106082 x153
       + 93735 x154 + 107085 x155 + 108014 x156 + 104918 x157 + 96158 x158
       + 105227 x159 + 92949 x160 + 93484 x161 + 101393 x162 + 102993 x163
       + 99460 x164 + 103589 x165 + 93428 x166 + 94747 x167 + 92133 x168
       + 96639 x169 + 91044 x170 + 95764 x171 + 93450 x172 + 98034 x173
       + 93878 x174 + 104293 x175 + 107133 x176 + 101629 x177 + 96252 x178
       + 91898 x179 + 100903 x180 + 101521 x181 + 93809 x182 + 93527 x183
       + 109761 x184 + 97813 x185 + 108067 x186 + 97919 x187 + 108784 x188
       + 95834 x189 + 106793 x190 + 98748 x191 + 106605 x192 + 104397 x193
       + 94048 x194 + 102824 x195 + 102736 x196 + 108940 x197 + 94266 x198
       + 108173 x199 + 100796 x200 + 96970 x201 + 101800 x202 + 91680 x203
       + 101064 x204 + 109360 x205 + 90951 x206 + 108506 x207 + 96794 x208
       + 108270 x209 + 91184 x210 + 93267 x211 + 94808 x212 + 94761 x213
       + 94054 x214 + 105442 x215 + 105477 x216 + 96916 x217 + 90665 x218
       + 109647 x219 + 92331 x220 + 102812 x221 + 101512 x222 + 105181 x223
       + 97391 x224 + 91717 x225 + 94150 x226 + 98626 x227 + 104681 x228
       + 101618 x229 + 108382 x230 + 108333 x231 + 91496 x232 + 101524 x233
       + 103509 x234 + 100226 x235 + 104614 x236 + 92918 x237 + 107697 x238
       + 100687 x239 + 106991 x240 + 109366 x241 + 106277 x242 + 107105 x243
       + 90284 x244 + 90790 x245 + 90375 x246 + 97581 x247 + 99912 x248
       + 102232 x249 + 107440 x250 + 97638 x251 + 105260 x252 + 98241 x253
       + 102768 x254 + 99498 x255 + 97461 x256 + 93060 x257 + 109086 x258
       + 95922 x259 + 91895 x260 + 109645 x261 + 96663 x262 + 97704 x263
       + 108779 x264 + 102702 x265 + 97162 x266 + 106167 x267 + 97344 x268
       + 90175 x269 + 102350 x270 + 108217 x271 + 108885 x272 + 101534 x273
       + 91004 x274 + 93265 x275 + 106477 x276 + 105758 x277 + 95177 x278
       + 93663 x279 + 97305 x280 + 97101 x281 + 100459 x282 + 103313 x283
       + 107307 x284 + 92503 x285 + 103926 x286 + 92709 x287 + 107266 x288
       + 90970 x289 + 108201 x290 + 92905 x291 + 104437 x292 + 102254 x293
       + 90367 x294 + 105790 x295 + 94519 x296 + 109881 x297 + 90440 x298
       + 93504 x299 + 125672 x300 + 198892 x301 + 215268 x302 + 190955 x303
       + 219939 x304 + 183481 x305 + 197787 x306 + 200481 x307 + 183394 x308
       + 211930 x309 + 187123 x310 + 180760 x311 + 201548 x312 + 206898 x313
       + 192439 x314 + 214986 x315 + 218246 x316 + 204850 x317 + 196725 x318
       + 190198 x319 + 188784 x320 + 215022 x321 + 193511 x322 + 208950 x323
       + 212243 x324 + 209719 x325 + 212788 x326 + 197010 x327 + 208932 x328
       + 198148 x329 + 188139 x330 + 200403 x331 + 207127 x332 + 191677 x333
       + 207473 x334 + 192669 x335 + 210603 x336 + 197796 x337 + 183830 x338
       + 194493 x339 + 189368 x340 + 183234 x341 + 200593 x342 + 182876 x343
       + 210774 x344 + 183606 x345 + 207037 x346 + 195859 x347 + 186639 x348
       + 207615 x349 + 205496 x350 + 181288 x351 + 194251 x352 + 208252 x353
       + 180534 x354 + 214454 x355 + 195077 x356 + 211617 x357 + 213355 x358
       + 199438 x359 + 233420 x360
Subject To
 c1:   x9 - x13 - x18 + x19 - x24 + x25 - x27 + x36 - x42 + x44 - x57  = 0
 c2:   x69 - x73 - x78 + x79 - x84 + x85 - x87 + x96 - x102 + x104 - x117  = 0
 c3:   x129 - x133 - x138 + x139 - x144 + x145 - x147 + x156 - x162 + x164
       - x177  = 0
 c4:   x189 - x193 - x198 + x199 - x204 + x205 - x207 + x216 - x222 + x224
       - x237  = 0
 c5:   x249 - x253 - x258 + x259 - x264 + x265 - x267 + x276 - x282 + x284
       - x297  = 0
 c6:   - x7 - x11 + x17 - x20 + x21 + x26 - x28 - x32 - x34 + x42 + x49 + x52
       + x56 - x60  = 1
 c7:   - x67 - x71 + x77 - x80 + x81 + x86 - x88 - x92 - x94 + x102 + x109
       + x112 + x116 - x120  = 1
 c8:   - x127 - x131 + x137 - x140 + x141 + x146 - x148 - x152 - x154 + x162
       + x169 + x172 + x176 - x180  = 0
 c9:   - x187 - x191 + x197 - x200 + x201 + x206 - x208 - x212 - x214 + x222
       + x229 + x232 + x236 - x240  = 0
 c10:  - x247 - x251 + x257 - x260 + x261 + x266 - x268 - x272 - x274 + x282
       + x289 + x292 + x296 - x300  = 0
 c11:  x14 - x21 + x22 + x29 + x30 + x31 + x32 - x37 - x43 - x45 + x50  = 0
 c12:  x74 - x81 + x82 + x89 + x90 + x91 + x92 - x97 - x103 - x105 + x110  = 0
 c13:  x134 - x141 + x142 + x149 + x150 + x151 + x152 - x157 - x163 - x165
       + x170  = 0
 c14:  x194 - x201 + x202 + x209 + x210 + x211 + x212 - x217 - x223 - x225
       + x230  = 0
 c15:  x254 - x261 + x262 + x269 + x270 + x271 + x272 - x277 - x283 - x285
       + x290  = -1
 c16:  - x8 - x10 - x12 + x16 - x17 + x27 - x30 + x35 + x53 + x60  = 0
 c17:  - x68 - x70 - x72 + x76 - x77 + x87 - x90 + x95 + x113 + x120  = 0
 c18:  - x128 - x130 - x132 + x136 - x137 + x147 - x150 + x155 + x173 + x180
        = 0
 c19:  - x188 - x190 - x192 + x196 - x197 + x207 - x210 + x215 + x233 + x240
        = 0
 c20:  - x248 - x250 - x252 + x256 - x257 + x267 - x270 + x275 + x293 + x300
        = 0
 c21:  - x1 - x15 - x16 + x20 + x23 + x45 + x48 - x50 - x51 - x56 + x58 + x59
        = 0
 c22:  - x61 - x75 - x76 + x80 + x83 + x105 + x108 - x110 - x111 - x116 + x118
       + x119  = -1
 c23:  - x121 - x135 - x136 + x140 + x143 + x165 + x168 - x170 - x171 - x176
       + x178 + x179  = 1
 c24:  - x181 - x195 - x196 + x200 + x203 + x225 + x228 - x230 - x231 - x236
       + x238 + x239  = 0
 c25:  - x241 - x255 - x256 + x260 + x263 + x285 + x288 - x290 - x291 - x296
       + x298 + x299  = 0
 c26:  - x3 + x6 + x7 + x8 + x13 + x15 - x31 - x33 - x36 + x39 - x49 - x54
       - x59  = -1
 c27:  - x63 + x66 + x67 + x68 + x73 + x75 - x91 - x93 - x96 + x99 - x109
       - x114 - x119  = 0
 c28:  - x123 + x126 + x127 + x128 + x133 + x135 - x151 - x153 - x156 + x159
       - x169 - x174 - x179  = 0
 c29:  - x183 + x186 + x187 + x188 + x193 + x195 - x211 - x213 - x216 + x219
       - x229 - x234 - x239  = 1
 c30:  - x243 + x246 + x247 + x248 + x253 + x255 - x271 - x273 - x276 + x279
       - x289 - x294 - x299  = 0
 c31:  - x4 + x5 + x10 + x18 + x28 + x37 - x39 + x40 - x44 + x46 - x52 - x58
        = 0
 c32:  - x64 + x65 + x70 + x78 + x88 + x97 - x99 + x100 - x104 + x106 - x112
       - x118  = 0
 c33:  - x124 + x125 + x130 + x138 + x148 + x157 - x159 + x160 - x164 + x166
       - x172 - x178  = 0
 c34:  - x184 + x185 + x190 + x198 + x208 + x217 - x219 + x220 - x224 + x226
       - x232 - x238  = 0
 c35:  - x244 + x245 + x250 + x258 + x268 + x277 - x279 + x280 - x284 + x286
       - x292 - x298  = 0
 c36:  - x2 - x5 + x11 + x12 - x25 - x29 + x41 - x48 + x51 - x53 + x54 - x55
       + x57  = 0
 c37:  - x62 - x65 + x71 + x72 - x85 - x89 + x101 - x108 + x111 - x113 + x114
       - x115 + x117  = 0
 c38:  - x122 - x125 + x131 + x132 - x145 - x149 + x161 - x168 + x171 - x173
       + x174 - x175 + x177  = -1
 c39:  - x182 - x185 + x191 + x192 - x205 - x209 + x221 - x228 + x231 - x233
       + x234 - x235 + x237  = 0
 c40:  - x242 - x245 + x251 + x252 - x265 - x269 + x281 - x288 + x291 - x293
       + x294 - x295 + x297  = 1
 c41:  x1 + x4 - x9 - x22 - x23 + x24 + x33 + x34 - x38 + x43 - x46 + x47 + x55
        = 0
 c42:  x61 + x64 - x69 - x82 - x83 + x84 + x93 + x94 - x98 + x103 - x106 + x107
       + x115  = 0
 c43:  x121 + x124 - x129 - x142 - x143 + x144 + x153 + x154 - x158 + x163
       - x166 + x167 + x175  = 0
 c44:  x181 + x184 - x189 - x202 - x203 + x204 + x213 + x214 - x218 + x223
       - x226 + x227 + x235  = 0
 c45:  x241 + x244 - x249 - x262 - x263 + x264 + x273 + x274 - x278 + x283
       - x286 + x287 + x295  = 0
 c46:  x2 + x3 - x6 - x14 - x19 - x26 - x35 + x38 - x40 - x41 - x47  = 0
 c47:  x62 + x63 - x66 - x74 - x79 - x86 - x95 + x98 - x100 - x101 - x107  = 0
 c48:  x122 + x123 - x126 - x134 - x139 - x146 - x155 + x158 - x160 - x161
       - x167  = 0
 c49:  x182 + x183 - x186 - x194 - x199 - x206 - x215 + x218 - x220 - x221
       - x227  = -1
 c50:  x242 + x243 - x246 - x254 - x259 - x266 - x275 + x278 - x280 - x281
       - x287  = 0
 c51:  4 x1 + 4 x61 + 4 x121 + 4 x181 + 4 x241 - 9 x301 <= 0
 c52:  4 x2 + 4 x62 + 4 x122 + 4 x182 + 4 x242 - 9 x302 <= 0
 c53:  4 x3 + 4 x63 + 4 x123 + 4 x183 + 4 x243 - 11 x303 <= 0
 c54:  4 x4 + 4 x64 + 4 x124 + 4 x184 + 4 x244 - 10 x304 <= 0
 c55:  4 x5 + 4 x65 + 4 x125 + 4 x185 + 4 x245 - 11 x305 <= 0
 c56:  4 x6 + 4 x66 + 4 x126 + 4 x186 + 4 x246 - 10 x306 <= 0
 c57:  4 x7 + 4 x67 + 4 x127 + 4 x187 + 4 x247 - 10 x307 <= 0
 c58:  4 x8 + 4 x68 + 4 x128 + 4 x188 + 4 x248 - 10 x308 <= 0
 c59:  4 x9 + 4 x69 + 4 x129 + 4 x189 + 4 x249 - 10 x309 <= 0
 c60:  4 x10 + 4 x70 + 4 x130 + 4 x190 + 4 x250 - 9 x310 <= 0
 c61:  4 x11 + 4 x71 + 4 x131 + 4 x191 + 4 x251 - 11 x311 <= 0
 c62:  4 x12 + 4 x72 + 4 x132 + 4 x192 + 4 x252 - 10 x312 <= 0
 c63:  4 x13 + 4 x73 + 4 x133 + 4 x193 + 4 x253 - 11 x313 <= 0
 c64:  4 x14 + 4 x74 + 4 x134 + 4 x194 + 4 x254 - 10 x314 <= 0
 c65:  4 x15 + 4 x75 + 4 x135 + 4 x195 + 4 x255 - 9 x315 <= 0
 c66:  4 x16 + 4 x76 + 4 x136 + 4 x196 + 4 x256 - 10 x316 <= 0
 c67:  4 x17 + 4 x77 + 4 x137 + 4 x197 + 4 x257 - 10 x317 <= 0
 c68:  4 x18 + 4 x78 + 4 x138 + 4 x198 + 4 x258 - 10 x318 <= 0
 c69:  4 x19 + 4 x79 + 4 x139 + 4 x199 + 4 x259 - 10 x319 <= 0
 c70:  4 x20 + 4 x80 + 4 x140 + 4 x200 + 4 x260 - 10 x320 <= 0
 c71:  4 x21 + 4 x81 + 4 x141 + 4 x201 + 4 x261 - 10 x321 <= 0
 c72:  4 x22 + 4 x82 + 4 x142 + 4 x202 + 4 x262 - 10 x322 <= 0
 c73:  4 x23 + 4 x83 + 4 x143 + 4 x203 + 4 x263 - 9 x323 <= 0
 c74:  4 x24 + 4 x84 + 4 x144 + 4 x204 + 4 x264 - 10 x324 <= 0
 c75:  4 x25 + 4 x85 + 4 x145 + 4 x205 + 4 x265 - 10 x325 <= 0
 c76:  4 x26 + 4 x86 + 4 x146 + 4 x206 + 4 x266 - 10 x326 <= 0
 c77:  4 x27 + 4 x87 + 4 x147 + 4 x207 + 4 x267 - 10 x327 <= 0
 c78:  4 x28 + 4 x88 + 4 x148 + 4 x208 + 4 x268 - 10 x328 <= 0
 c79:  4 x29 + 4 x89 + 4 x149 + 4 x209 + 4 x269 - 9 x329 <= 0
 c80:  4 x30 + 4 x90 + 4 x150 + 4 x210 + 4 x270 - 9 x330 <= 0
 c81:  4 x31 + 4 x91 + 4 x151 + 4 x211 + 4 x271 - 10 x331 <= 0
 c82:  4 x32 + 4 x92 + 4 x152 + 4 x212 + 4 x272 - 9 x332 <= 0
 c83:  4 x33 + 4 x93 + 4 x153 + 4 x213 + 4 x273 - 10 x333 <= 0
 c84:  4 x34 + 4 x94 + 4 x154 + 4 x214 + 4 x274 - 10 x334 <= 0
 c85:  4 x35 + 4 x95 + 4 x155 + 4 x215 + 4 x275 - 10 x335 <= 0
 c86:  4 x36 + 4 x96 + 4 x156 + 4 x216 + 4 x276 - 10 x336 <= 0
 c87:  4 x37 + 4 x97 + 4 x157 + 4 x217 + 4 x277 - 11 x337 <= 0
 c88:  4 x38 + 4 x98 + 4 x158 + 4 x218 + 4 x278 - 10 x338 <= 0
 c89:  4 x39 + 4 x99 + 4 x159 + 4 x219 + 4 x279 - 10 x339 <= 0
 c90:  4 x40 + 4 x100 + 4 x160 + 4 x220 + 4 x280 - 11 x340 <= 0
 c91:  4 x41 + 4 x101 + 4 x161 + 4 x221 + 4 x281 - 9 x341 <= 0
 c92:  4 x42 + 4 x102 + 4 x162 + 4 x222 + 4 x282 - 10 x342 <= 0
 c93:  4 x43 + 4 x103 + 4 x163 + 4 x223 + 4 x283 - 10 x343 <= 0
 c94:  4 x44 + 4 x104 + 4 x164 + 4 x224 + 4 x284 - 9 x344 <= 0
 c95:  4 x45 + 4 x105 + 4 x165 + 4 x225 + 4 x285 - 10 x345 <= 0
 c96:  4 x46 + 4 x106 + 4 x166 + 4 x226 + 4 x286 - 9 x346 <= 0
 c97:  4 x47 + 4 x107 + 4 x167 + 4 x227 + 4 x287 - 9 x347 <= 0
 c98:  4 x48 + 4 x108 + 4 x168 + 4 x228 + 4 x288 - 11 x348 <= 0
 c99:  4 x49 + 4 x109 + 4 x169 + 4 x229 + 4 x289 - 9 x349 <= 0
 c100: 4 x50 + 4 x110 + 4 x170 + 4 x230 + 4 x290 - 11 x350 <= 0
 c101: 4 x51 + 4 x111 + 4 x171 + 4 x231 + 4 x291 - 10 x351 <= 0
 c102: 4 x52 + 4 x112 + 4 x172 + 4 x232 + 4 x292 - 10 x352 <= 0
 c103: 4 x53 + 4 x113 + 4 x173 + 4 x233 + 4 x293 - 10 x353 <= 0
 c104: 4 x54 + 4 x114 + 4 x174 + 4 x234 + 4 x294 - 9 x354 <= 0
 c105: 4 x55 + 4 x115 + 4 x175 + 4 x235 + 4 x295 - 10 x355 <= 0
 c106: 4 x56 + 4 x116 + 4 x176 + 4 x236 + 4 x296 - 10 x356 <= 0
 c107: 4 x57 + 4 x117 + 4 x177 + 4 x237 + 4 x297 - 10 x357 <= 0
 c108: 4 x58 + 4 x118 + 4 x178 + 4 x238 + 4 x298 - 10 x358 <= 0
 c109: 4 x59 + 4 x119 + 4 x179 + 4 x239 + 4 x299 - 10 x359 <= 0
 c110: 4 x60 + 4 x120 + 4 x180 + 4 x240 + 4 x300 - 16 x360 <= 0
Bounds
 0 <= x1 <= 1
 0 <= x2 <= 1
 0 <= x3 <= 1
 0 <= x4 <= 1
 0 <= x5 <= 1
 0 <= x6 <= 1
 0 <= x7 <= 1
 0 <= x8 <= 1
 0 <= x9 <= 1
 0 <= x10 <= 1
 0 <= x11 <= 1
 0 <= x12 <= 1
 0 <= x13 <= 1
 0 <= x14 <= 1
 0 <= x15 <= 1
 0 <= x16 <= 1
 0 <= x17 <= 1
 0 <= x18 <= 1
 0 <= x19 <= 1
 0 <= x20 <= 1
 0 <= x21 <= 1
 0 <= x22 <= 1
 0 <= x23 <= 1
 0 <= x24 <= 1
 0 <= x25 <= 1
 0 <= x26 <= 1
 0 <= x27 <= 1
 0 <= x28 <= 1
 0 <= x29 <= 1
 0 <= x30 <= 1
 0 <= x31 <= 1
 0 <= x32 <= 1
 0 <= x33 <= 1
 0 <= x34 <= 1
 0 <= x35 <= 1
 0 <= x36 <= 1
 0 <= x37 <= 1
 0 <= x38 <= 1
 0 <= x39 <= 1
 0 <= x40 <= 1
 0 <= x41 <= 1
 0 <= x42 <= 1
 0 <= x43 <= 1
 0 <= x44 <= 1
 0 <= x45 <= 1
 0 <= x46 <= 1
 0 <= x47 <= 1
 0 <= x48 <= 1
 0 <= x49 <= 1
 0 <= x50 <= 1
 0 <= x51 <= 1
 0 <= x52 <= 1
 0 <= x53 <= 1
 0 <= x54 <= 1
 0 <= x55 <= 1
 0 <= x56 <= 1
 0 <= x57 <= 1
 0 <= x58 <= 1
 0 <= x59 <= 1
 0 <= x60 <= 1
 0 <= x61 <= 1
 0 <= x62 <= 1
 0 <= x63 <= 1
 0 <= x64 <= 1
 0 <= x65 <= 1
 0 <= x66 <= 1
 0 <= x67 <= 1
 0 <= x68 <= 1
 0 <= x69 <= 1
 0 <= x70 <= 1
 0 <= x71 <= 1
 0 <= x72 <= 1
 0 <= x73 <= 1
 0 <= x74 <= 1
 0 <= x75 <= 1
 0 <= x76 <= 1
 0 <= x77 <= 1
 0 <= x78 <= 1
 0 <= x79 <= 1
 0 <= x80 <= 1
 0 <= x81 <= 1
 0 <= x82 <= 1
 0 <= x83 <= 1
 0 <= x84 <= 1
 0 <= x85 <= 1
 0 <= x86 <= 1
 0 <= x87 <= 1
 0 <= x88 <= 1
 0 <= x89 <= 1
 0 <= x90 <= 1
 0 <= x91 <= 1
 0 <= x92 <= 1
 0 <= x93 <= 1
 0 <= x94 <= 1
 0 <= x95 <= 1
 0 <= x96 <= 1
 0 <= x97 <= 1
 0 <= x98 <= 1
 0 <= x99 <= 1
 0 <= x100 <= 1
 0 <= x101 <= 1
 0 <= x102 <= 1
 0 <= x103 <= 1
 0 <= x104 <= 1
 0 <= x105 <= 1
 0 <= x106 <= 1
 0 <= x107 <= 1
 0 <= x108 <= 1
 0 <= x109 <= 1
 0 <= x110 <= 1
 0 <= x111 <= 1
 0 <= x112 <= 1
 0 <= x113 <= 1
 0 <= x114 <= 1
 0 <= x115 <= 1
 0 <= x116 <= 1
 0 <= x117 <= 1
 0 <= x118 <= 1
 0 <= x119 <= 1
 0 <= x120 <= 1
 0 <= x121 <= 1
 0 <= x122 <= 1
 0 <= x123 <= 1
 0 <= x124 <= 1
 0 <= x125 <= 1
 0 <= x126 <= 1
 0 <= x127 <= 1
 0 <= x128 <= 1
 0 <= x129 <= 1
 0 <= x130 <= 1
 0 <= x131 <= 1
 0 <= x132 <= 1
 0 <= x133 <= 1
 0 <= x134 <= 1
 0 <= x135 <= 1
 0 <= x136 <= 1
 0 <= x137 <= 1
 0 <= x138 <= 1
 0 <= x139 <= 1
 0 <= x140 <= 1
 0 <= x141 <= 1
 0 <= x142 <= 1
 0 <= x143 <= 1
 0 <= x144 <= 1
 0 <= x145 <= 1
 0 <= x146 <= 1
 0 <= x147 <= 1
 0 <= x148 <= 1
 0 <= x149 <= 1
 0 <= x150 <= 1
 0 <= x151 <= 1
 0 <= x152 <= 1
 0 <= x153 <= 1
 0 <= x154 <= 1
 0 <= x155 <= 1
 0 <= x156 <= 1
 0 <= x157 <= 1
 0 <= x158 <= 1
 0 <= x159 <= 1
 0 <= x160 <= 1
 0 <= x161 <= 1
 0 <= x162 <= 1
 0 <= x163 <= 1
 0 <= x164 <= 1
 0 <= x165 <= 1
 0 <= x166 <= 1
 0 <= x167 <= 1
 0 <= x168 <= 1
 0 <= x169 <= 1
 0 <= x170 <= 1
 0 <= x171 <= 1
 0 <= x172 <= 1
 0 <= x173 <= 1
 0 <= x174 <= 1
 0 <= x175 <= 1
 0 <= x176 <= 1
 0 <= x177 <= 1
 0 <= x178 <= 1
 0 <= x179 <= 1
 0 <= x180 <= 1
 0 <= x181 <= 1
 0 <= x182 <= 1
 0 <= x183 <= 1
 0 <= x184 <= 1
 0 <= x185 <= 1
 0 <= x186 <= 1
 0 <= x187 <= 1
 0 <= x188 <= 1
 0 <= x189 <= 1
 0 <= x190 <= 1
 0 <= x191 <= 1
 0 <= x192 <= 1
 0 <= x193 <= 1
 0 <= x194 <= 1
 0 <= x195 <= 1
 0 <= x196 <= 1
 0 <= x197 <= 1
 0 <= x198 <= 1
 0 <= x199 <= 1
 0 <= x200 <= 1
 0 <= x201 <= 1
 0 <= x202 <= 1
 0 <= x203 <= 1
 0 <= x204 <= 1
 0 <= x205 <= 1
 0 <= x206 <= 1
 0 <= x207 <= 1
 0 <= x208 <= 1
 0 <= x209 <= 1
 0 <= x210 <= 1
 0 <= x211 <= 1
 0 <= x212 <= 1
 0 <= x213 <= 1
 0 <= x214 <= 1
 0 <= x215 <= 1
 0 <= x216 <= 1
 0 <= x217 <= 1
 0 <= x218 <= 1
 0 <= x219 <= 1
 0 <= x220 <= 1
 0 <= x221 <= 1
 0 <= x222 <= 1
 0 <= x223 <= 1
 0 <= x224 <= 1
 0 <= x225 <= 1
 0 <= x226 <= 1
 0 <= x227 <= 1
 0 <= x228 <= 1
 0 <= x229 <= 1
 0 <= x230 <= 1
 0 <= x231 <= 1
 0 <= x232 <= 1
 0 <= x233 <= 1
 0 <= x234 <= 1
 0 <= x235 <= 1
 0 <= x236 <= 1
 0 <= x237 <= 1
 0 <= x238 <= 1
 0 <= x239 <= 1
 0 <= x240 <= 1
 0 <= x241 <= 1
 0 <= x242 <= 1
 0 <= x243 <= 1
 0 <= x244 <= 1
 0 <= x245 <= 1
 0 <= x246 <= 1
 0 <= x247 <= 1
 0 <= x248 <= 1
 0 <= x249 <= 1
 0 <= x250 <= 1
 0 <= x251 <= 1
 0 <= x252 <= 1
 0 <= x253 <= 1
 0 <= x254 <= 1
 0 <= x255 <= 1
 0 <= x256 <= 1
 0 <= x257 <= 1
 0 <= x258 <= 1
 0 <= x259 <= 1
 0 <= x260 <= 1
 0 <= x261 <= 1
 0 <= x262 <= 1
 0 <= x263 <= 1
 0 <= x264 <= 1
 0 <= x265 <= 1
 0 <= x266 <= 1
 0 <= x267 <= 1
 0 <= x268 <= 1
 0 <= x269 <= 1
 0 <= x270 <= 1
 0 <= x271 <= 1
 0 <= x272 <= 1
 0 <= x273 <= 1
 0 <= x274 <= 1
 0 <= x275 <= 1
 0 <= x276 <= 1
 0 <= x277 <= 1
 0 <= x278 <= 1
 0 <= x279 <= 1
 0 <= x280 <= 1
 0 <= x281 <= 1
 0 <= x282 <= 1
 0 <= x283 <= 1
 0 <= x284 <= 1
 0 <= x285 <= 1
 0 <= x286 <= 1
 0 <= x287 <= 1
 0 <= x288 <= 1
 0 <= x289 <= 1
 0 <= x290 <= 1
 0 <= x291 <= 1
 0 <= x292 <= 1
 0 <= x293 <= 1
 0 <= x294 <= 1
 0 <= x295 <= 1
 0 <= x296 <= 1
 0 <= x297 <= 1
 0 <= x298 <= 1
 0 <= x299 <= 1
 0 <= x300 <= 1
 0 <= x301 <= 1
 0 <= x302 <= 1
 0 <= x303 <= 1
 0 <= x304 <= 1
 0 <= x305 <= 1
 0 <= x306 <= 1
 0 <= x307 <= 1
 0 <= x308 <= 1
 0 <= x309 <= 1
 0 <= x310 <= 1
 0 <= x311 <= 1
 0 <= x312 <= 1
 0 <= x313 <= 1
 0 <= x314 <= 1
 0 <= x315 <= 1
 0 <= x316 <= 1
 0 <= x317 <= 1
 0 <= x318 <= 1
 0 <= x319 <= 1
 0 <= x320 <= 1
 0 <= x321 <= 1
 0 <= x322 <= 1
 0 <= x323 <= 1
 0 <= x324 <= 1
 0 <= x325 <= 1
 0 <= x326 <= 1
 0 <= x327 <= 1
 0 <= x328 <= 1
 0 <= x329 <= 1
 0 <= x330 <= 1
 0 <= x331 <= 1
 0 <= x332 <= 1
 0 <= x333 <= 1
 0 <= x334 <= 1
 0 <= x335 <= 1
 0 <= x336 <= 1
 0 <= x337 <= 1
 0 <= x338 <= 1
 0 <= x339 <= 1
 0 <= x340 <= 1
 0 <= x341 <= 1
 0 <= x342 <= 1
 0 <= x343 <= 1
 0 <= x344 <= 1
 0 <= x345 <= 1
 0 <= x346 <= 1
 0 <= x347 <= 1
 0 <= x348 <= 1
 0 <= x349 <= 1
 0 <= x350 <= 1
 0 <= x351 <= 1
 0 <= x352 <= 1
 0 <= x353 <= 1
 0 <= x354 <= 1
 0 <= x355 <= 1
 0 <= x356 <= 1
 0 <= x357 <= 1
 0 <= x358 <= 1
 0 <= x359 <= 1
 0 <= x360 <= 1
Binaries
 x301  x302  x303  x304  x305  x306  x307  x308  x309  x310  x311  x312  x313 
 x314  x315  x316  x317  x318  x319  x320  x321  x322  x323  x324  x325  x326 
 x327  x328  x329  x330  x331  x332  x333  x334  x335  x336  x337  x338  x339 
 x340  x341  x342  x343  x344  x345  x346  x347  x348  x349  x350  x351  x352 
 x353  x354  x355  x356  x357  x358  x359  x360 
End
